
Gurobi 9.0.2 (win64) logging started Sat Oct 10 17:27:09 2020

Changed value of parameter logfile to result\v6.2-20201010T1221\scenario_2030_eff080_cab4000.log
   Prev:   Default: 
Gurobi Optimizer version 9.0.2 build v9.0.2rc0 (win64)
Optimize a model with 1384150 rows, 884815 columns and 3912197 nonzeros
Model fingerprint: 0xad4d74d7
Coefficient statistics:
  Matrix range     [1e-07, 4e+05]
  Objective range  [1e+00, 1e+00]
  Bounds range     [0e+00, 0e+00]
  RHS range        [2e-05, 3e+08]
Warning: Model contains large matrix coefficient range
         Consider reformulating model or setting NumericFocus parameter
         to avoid numerical issues.

Concurrent LP optimizer: primal simplex, dual simplex, and barrier
Showing barrier log only...

Presolve removed 1129315 rows and 656241 columns
Presolve time: 5.45s
Presolved: 254835 rows, 342440 columns, 891938 nonzeros

Ordering time: 0.23s

Barrier statistics:
 Dense cols : 9
 AA' NZ     : 8.194e+05
 Factor NZ  : 4.461e+06 (roughly 300 MBytes of memory)
 Factor Ops : 1.125e+08 (less than 1 second per iteration)
 Threads    : 30

                  Objective                Residual
Iter       Primal          Dual         Primal    Dual     Compl     Time
   0  -2.05099471e+16 -1.58516117e+15  6.15e+06 1.56e+04  2.46e+12     7s
   1  -3.14416612e+15 -1.58947247e+15  9.35e+05 4.73e+06  8.13e+11     7s
   2  -1.32317889e+15 -1.27422674e+15  3.91e+05 7.35e+05  2.11e+11     7s
   3  -4.37216914e+14 -1.03636928e+15  1.27e+05 1.78e+05  6.37e+10     8s
   4  -9.90220979e+13 -6.29074001e+14  2.73e+04 4.35e+04  1.49e+10     8s
   5  -3.60498334e+13 -4.22444872e+14  1.05e+04 2.12e+04  6.56e+09     8s
   6  -1.64119354e+13 -3.52377520e+14  5.05e+03 1.50e+04  4.00e+09     9s
   7  -8.31567174e+12 -1.90847384e+14  2.73e+03 3.72e+03  1.47e+09     9s
   8  -2.21667572e+12 -9.93037783e+13  9.11e+02 6.06e+02  4.01e+08     9s
   9   7.13853173e+11 -2.43056289e+13  9.55e+00 1.97e+01  3.97e+07    10s
  10   3.50263327e+11 -1.91082273e+12  1.94e-01 1.30e+00  3.40e+06    10s
  11   1.62987687e+11 -6.31657262e+11  6.39e-02 2.85e-01  1.17e+06    10s
  12   6.55966562e+10 -2.79222474e+11  2.13e-02 2.53e-02  5.02e+05    11s
  13   5.54661488e+10 -1.67639182e+11  1.74e-02 1.12e-08  3.25e+05    11s
  14   3.64219946e+10 -9.31644650e+10  1.07e-02 1.12e-08  1.88e+05    11s
  15   1.87180575e+10 -4.35519034e+10  4.53e-03 1.49e-08  9.02e+04    12s
  16   1.97942232e+10 -3.18371102e+10  4.37e-03 1.12e-08  7.48e+04    12s
  17   1.31473696e+10 -6.48525682e+09  2.19e-03 1.12e-08  2.84e+04    12s
  18   9.43565518e+09  1.98080123e+09  7.65e-04 1.12e-08  1.08e+04    13s
  19   8.24559228e+09  4.92119252e+09  3.34e-04 5.59e-09  4.81e+03    13s
  20   8.01379412e+09  5.44443704e+09  2.61e-04 5.59e-09  3.71e+03    13s
  21   7.85278918e+09  5.67471897e+09  2.10e-04 5.59e-09  3.15e+03    14s
  22   7.71389882e+09  5.80459369e+09  1.66e-04 5.59e-09  2.76e+03    14s
  23   7.62479470e+09  6.23366606e+09  1.39e-04 3.73e-09  2.01e+03    15s
  24   7.49004952e+09  6.32056714e+09  9.63e-05 4.66e-09  1.69e+03    15s
  25   7.35059787e+09  6.73008453e+09  5.19e-05 2.79e-09  8.96e+02    16s
  26   7.26147966e+09  6.92699924e+09  2.53e-05 2.79e-09  4.83e+02    17s
  27   7.22168564e+09  7.01501273e+09  1.49e-05 1.86e-09  2.98e+02    18s
  28   7.20014862e+09  7.03813212e+09  9.42e-06 1.86e-09  2.34e+02    19s
  29   7.18803964e+09  7.06655608e+09  6.27e-06 1.86e-09  1.75e+02    19s
  30   7.17773057e+09  7.09336364e+09  3.72e-06 1.86e-09  1.22e+02    20s
  31   7.17032024e+09  7.12565808e+09  2.03e-06 1.86e-09  6.45e+01    21s
  32   7.16514678e+09  7.14129139e+09  9.09e-07 1.86e-09  3.44e+01    22s
  33   7.16294271e+09  7.14733825e+09  4.58e-07 1.86e-09  2.25e+01    23s
  34   7.16177916e+09  7.15018162e+09  2.18e-07 1.86e-09  1.67e+01    24s
  35   7.16123604e+09  7.15396592e+09  1.99e-07 1.86e-09  1.05e+01    24s
  36   7.16083886e+09  7.15710198e+09  1.62e-07 1.86e-09  5.39e+00    24s
  37   7.16060376e+09  7.15850018e+09  2.59e-07 1.86e-09  3.04e+00    25s
  38   7.16049942e+09  7.15948017e+09  2.57e-07 1.86e-09  1.47e+00    25s
  39   7.16047010e+09  7.15962923e+09  1.68e-07 1.86e-09  1.21e+00    26s
  40   7.16044807e+09  7.16020238e+09  9.76e-08 2.79e-09  3.55e-01    26s
  41   7.16041970e+09  7.16031050e+09  1.32e-07 2.79e-09  1.58e-01    27s
  42   7.16041752e+09  7.16032047e+09  8.55e-08 2.79e-09  1.40e-01    27s
  43   7.16041722e+09  7.16041159e+09  4.97e-08 2.02e-07  8.14e-03    28s
  44   7.16041694e+09  7.16041689e+09  8.74e-10 3.62e-09  6.71e-05    29s
  45   7.16041694e+09  7.16041689e+09  2.97e-05 3.30e-09  6.69e-05    31s

Barrier solved model in 45 iterations and 30.66 seconds
Optimal objective 7.16041694e+09

Crossover log...

   75844 DPushes remaining with DInf 0.0000000e+00                31s
       0 DPushes remaining with DInf 0.0000000e+00                33s
Warning: Markowitz tolerance tightened to 0.5

   62697 PPushes remaining with PInf 1.6087993e-03                33s
   37168 PPushes remaining with PInf 0.0000000e+00                39s
   22875 PPushes remaining with PInf 0.0000000e+00                42s
    5341 PPushes remaining with PInf 0.0000000e+00                46s
       0 PPushes remaining with PInf 0.0000000e+00                47s

  Push phase complete: Pinf 0.0000000e+00, Dinf 1.1352636e-08     47s

Iteration    Objective       Primal Inf.    Dual Inf.      Time
   91308    7.1604169e+09   0.000000e+00   0.000000e+00     50s

Solved with barrier
Solved in 91308 iterations and 49.92 seconds
Optimal objective  7.160416938e+09
Warning: unscaled primal violation = 0.000862466 and residual = 0.000862466
